(set-logic QF_S)
(declare-fun sigmaStar_548 () String)
(declare-fun b_sigmaStar_548 () Bool)
(declare-fun sigmaStar_452 () String)
(declare-fun b_sigmaStar_452 () Bool)
(declare-fun literal_21 () String)
(declare-fun b_literal_21 () Bool)
(declare-fun literal_28 () String)
(declare-fun b_literal_28 () Bool)
(declare-fun literal_30 () String)
(declare-fun b_literal_30 () Bool)
(declare-fun literal_36 () String)
(declare-fun b_literal_36 () Bool)
(declare-fun literal_33 () String)
(declare-fun b_literal_33 () Bool)
(declare-fun literal_37 () String)
(declare-fun b_literal_37 () Bool)
(declare-fun sigmaStar_362 () String)
(declare-fun b_sigmaStar_362 () Bool)
(declare-fun literal_38 () String)
(declare-fun b_literal_38 () Bool)
(declare-fun literal_42 () String)
(declare-fun b_literal_42 () Bool)
(declare-fun literal_49 () String)
(declare-fun b_literal_49 () Bool)
(declare-fun literal_51 () String)
(declare-fun b_literal_51 () Bool)
(declare-fun literal_52 () String)
(declare-fun b_literal_52 () Bool)
(declare-fun literal_53 () String)
(declare-fun b_literal_53 () Bool)
(declare-fun sigmaStar_069 () String)
(declare-fun b_sigmaStar_069 () Bool)
(declare-fun literal_59 () String)
(declare-fun b_literal_59 () Bool)
(declare-fun literal_61 () String)
(declare-fun b_literal_61 () Bool)
(declare-fun literal_67 () String)
(declare-fun b_literal_67 () Bool)
(declare-fun sigmaStar_173 () String)
(declare-fun b_sigmaStar_173 () Bool)
(declare-fun literal_74 () String)
(declare-fun b_literal_74 () Bool)
(declare-fun sigmaStar_675 () String)
(declare-fun b_sigmaStar_675 () Bool)
(declare-fun literal_73 () String)
(declare-fun b_literal_73 () Bool)
(declare-fun literal_80 () String)
(declare-fun b_literal_80 () Bool)
(declare-fun sigmaStar_278 () String)
(declare-fun b_sigmaStar_278 () Bool)
(declare-fun atkPtn () String)
(declare-fun b_atkPtn () Bool)
(declare-fun x_15 () String)
(declare-fun b_x_15 () Bool)
(declare-fun x_24 () String)
(declare-fun b_x_24 () Bool)
(declare-fun x_29 () String)
(declare-fun b_x_29 () Bool)
(declare-fun x_32 () String)
(declare-fun b_x_32 () Bool)
(declare-fun x_34 () String)
(declare-fun b_x_34 () Bool)
(declare-fun x_39 () String)
(declare-fun b_x_39 () Bool)
(declare-fun x_40 () String)
(declare-fun b_x_40 () Bool)
(declare-fun x_43 () String)
(declare-fun b_x_43 () Bool)
(declare-fun x_46 () String)
(declare-fun b_x_46 () Bool)
(declare-fun x_48 () String)
(declare-fun b_x_48 () Bool)
(declare-fun x_54 () String)
(declare-fun b_x_54 () Bool)
(declare-fun x_57 () String)
(declare-fun b_x_57 () Bool)
(declare-fun x_60 () String)
(declare-fun b_x_60 () Bool)
(declare-fun x_62 () String)
(declare-fun b_x_62 () Bool)
(declare-fun x_65 () String)
(declare-fun b_x_65 () Bool)
(declare-fun x_68 () String)
(declare-fun b_x_68 () Bool)
(declare-fun x_69 () String)
(declare-fun b_x_69 () Bool)
(declare-fun x_71 () String)
(declare-fun b_x_71 () Bool)
(declare-fun x_72 () String)
(declare-fun b_x_72 () Bool)
(declare-fun x_75 () String)
(declare-fun b_x_75 () Bool)
(declare-fun x_76 () String)
(declare-fun b_x_76 () Bool)
(declare-fun x_77 () String)
(declare-fun b_x_77 () Bool)
(declare-fun x_78 () String)
(declare-fun b_x_78 () Bool)
(declare-fun x_79 () String)
(declare-fun b_x_79 () Bool)
(declare-fun x_81 () String)
(declare-fun b_x_81 () Bool)
(declare-fun x_82 () String)
(declare-fun b_x_82 () Bool)
(declare-fun sink () String)
(declare-fun b_sink () Bool)
(declare-fun atk_sigmaStar_1 () String)
(declare-fun atk_sigmaStar_2 () String)
(declare-fun atk_sink () String)

(assert (and b_literal_21 (= literal_21 "\x26\x6e\x62\x73\x70\x3b\x3c\x41\x20\x53\x54\x59\x4c\x45\x3d\x43\x4f\x4c\x4f\x52\x3a\x62\x6c\x75\x65\x3b\x20\x48\x52\x45\x46\x3d\x5c\x22\x6d\x61\x69\x6c\x74\x6f\x3a")))
(assert (and b_literal_28 (= literal_28 "\x26\x6e\x62\x73\x70\x3b\x3c\x41\x20\x53\x54\x59\x4c\x45\x3d\x43\x4f\x4c\x4f\x52\x3a\x62\x6c\x75\x65\x3b\x20\x48\x52\x45\x46\x3d\x5c\x22\x68\x74\x74\x70\x3a\x2f\x2f")))
(assert (and b_literal_30 (= literal_30 "\x5c\x22\x3e\x3c\x49\x4d\x47\x20\x53\x52\x43\x3d")))
(assert (and b_literal_36 (= literal_36 "\x5c\x22\x3e\x3c\x49\x4d\x47\x20\x53\x52\x43\x3d")))
(assert (and b_literal_33 (= literal_33 "\x68\x74\x74\x70\x3a\x2f\x2f\x6c\x6f\x63\x61\x6c\x68\x6f\x73\x74\x2f\x65\x6d\x61\x69\x6c\x62\x75\x74\x2e\x70\x6e\x67")))
(assert (and b_literal_37 (= literal_37 "\x26\x6e\x62\x73\x70\x3b\x3c\x41\x20\x53\x54\x59\x4c\x45\x3d\x43\x4f\x4c\x4f\x52\x3a\x62\x6c\x75\x65\x3b\x20\x48\x52\x45\x46\x3d\x70\x62\x6c\x67\x75\x65\x73\x74\x62\x6f\x6f\x6b\x2e\x70\x68\x70\x3f\x61\x63\x74\x69\x6f\x6e\x3d\x64\x65\x6c\x65\x74\x65\x26\x69\x64\x3d")))
(assert (and b_literal_38 (= literal_38 "\x68\x74\x74\x70\x3a\x2f\x2f\x6c\x6f\x63\x61\x6c\x68\x6f\x73\x74\x2f\x68\x6f\x6d\x65\x62\x75\x74\x2e\x70\x6e\x67")))
(assert (and b_literal_42 (= literal_42 "\x20\x42\x4f\x52\x44\x45\x52\x3d\x30\x20\x41\x4c\x54\x3d\x5c\x22")))
(assert (and b_literal_49 (= literal_49 "\x3e\x3c\x49\x4d\x47\x20\x53\x52\x43\x3d")))
(assert (and b_literal_51 (= literal_51 "\x20\x42\x4f\x52\x44\x45\x52\x3d\x30\x20\x41\x4c\x54\x3d\x5c\x22")))
(assert (and b_literal_52 (= literal_52 "\x65\x6d\x61\x69\x6c\x22\x3e\x3c\x2f\x41\x3e\x26\x6e\x62\x73\x70\x3b")))
(assert (and b_literal_53 (= literal_53 "\x68\x74\x74\x70\x3a\x2f\x2f\x6c\x6f\x63\x61\x6c\x68\x6f\x73\x74\x2f\x64\x65\x6c\x62\x75\x74\x2e\x70\x6e\x67")))
(assert (and b_literal_59 (= literal_59 "\x77\x65\x62\x73\x69\x74\x65\x20\x55\x52\x4c\x22\x3e\x3c\x2f\x41\x3e\x26\x6e\x62\x73\x70\x3b")))
(assert (and b_literal_61 (= literal_61 "\x3c\x2f\x54\x44\x3e\x3c\x54\x44\x20\x53\x54\x59\x4c\x45\x3d\x54\x45\x58\x54\x2d\x41\x4c\x49\x47\x4e\x3a\x72\x69\x67\x68\x74\x3b\x3e\x3c\x46\x4f\x4e\x54\x20\x53\x49\x5a\x45\x3d\x31\x3e")))
(assert (and b_literal_67 (= literal_67 "\x20\x42\x4f\x52\x44\x45\x52\x3d\x30\x20\x41\x4c\x54\x3d\x5c\x22")))
(assert (and b_literal_74 (= literal_74 "\x26\x6e\x62\x73\x70\x3b\x3c\x49\x4d\x47\x20\x53\x52\x43\x3d\x68\x74\x74\x70\x3a\x2f\x2f\x6c\x6f\x63\x61\x6c\x68\x6f\x73\x74\x2f\x69\x70\x62\x75\x74\x2e\x70\x6e\x67\x20\x42\x4f\x52\x44\x45\x52\x3d\x30\x20\x41\x4c\x54\x3d\x5c\x22\x22\x3e\x26\x6e\x62\x73\x70\x3b")))
(assert (and b_literal_73 (= literal_73 "\x64\x65\x6c\x65\x74\x65\x22\x3e\x3c\x2f\x41\x3e\x26\x6e\x62\x73\x70\x3b")))
(assert (and b_literal_80 (= literal_80 "\x3c\x2f\x46\x4f\x4e\x54\x3e\x3c\x2f\x54\x44\x3e\x3c\x2f\x54\x52\x3e")))
(assert (str.in.re atkPtn (str.to.re "\\0075\\0072\\006C\\0028'\\006a\\0061\\0076\\0061\\0073\\0063\\0072\\0069\\0070\\0074\\003a\\0061\\006c\\0065\\0072\\0074\\0028.1027\\0058.1053\\0053\\0027\\0029'\\0029")))
(assert (= atk_sink (str.++ atk_sigmaStar_1 (str.++ atkPtn atk_sigmaStar_2))))
(assert (= b_x_15 (and (= x_15 (str.replace sigmaStar_548 (re.++ (str.to.re "<SCRIPT" ) (re.++ (re.union (re.* re.allchar) (str.to.re "" ) ) (re.++ (str.to.re ">" ) (re.++ (re.union (re.* re.allchar) (str.to.re "" ) ) (re.++ (str.to.re "</SCRIPT" ) (re.++ (re.union (re.* re.allchar) (str.to.re "" ) ) (str.to.re ">" ))))))) "SCRIPT BLOCKED") ) b_sigmaStar_548) ))
(assert (= b_x_24 (and (= x_24 (str.replace sigmaStar_452 (re.++ (str.to.re "<SCRIPT" ) (re.++ (re.union (re.* re.allchar) (str.to.re "" ) ) (re.++ (str.to.re ">" ) (re.++ (re.union (re.* re.allchar) (str.to.re "" ) ) (re.++ (str.to.re "</SCRIPT" ) (re.++ (re.union (re.* re.allchar) (str.to.re "" ) ) (str.to.re ">" ))))))) "SCRIPT BLOCKED") ) b_sigmaStar_452) ))
(assert (= b_x_29 (and (= x_29 (str.++ literal_21 x_15) ) b_literal_21 b_x_15) ))
(assert (= b_x_32 (and (= x_32 (str.++ literal_28 x_24) ) b_literal_28 b_x_24) ))
(assert (= b_x_34 (and (= x_34 (str.++ x_29 literal_30) ) b_x_29 b_literal_30) ))
(assert (= b_x_39 (and (= x_39 (str.++ x_32 literal_36) ) b_x_32 b_literal_36) ))
(assert (= b_x_40 (and (= x_40 (str.++ x_34 literal_33) ) b_x_34 b_literal_33) ))
(assert (= b_x_43 (and (= x_43 (str.++ literal_37 sigmaStar_362) ) b_literal_37 b_sigmaStar_362) ))
(assert (= b_x_46 (and (= x_46 (str.++ x_39 literal_38) ) b_x_39 b_literal_38) ))
(assert (= b_x_48 (and (= x_48 (str.++ x_40 literal_42) ) b_x_40 b_literal_42) ))
(assert (= b_x_54 (and (= x_54 (str.++ x_43 literal_49) ) b_x_43 b_literal_49) ))
(assert (= b_x_57 (and (= x_57 (str.++ x_46 literal_51) ) b_x_46 b_literal_51) ))
(assert (= b_x_60 (and (= x_60 (str.++ x_48 literal_52) ) b_x_48 b_literal_52) ))
(assert (= b_x_62 (and (= x_62 (str.++ x_54 literal_53) ) b_x_54 b_literal_53) ))
(assert (= b_x_65 (or (and (= x_65 x_60) b_x_60) (and (= x_65 sigmaStar_069) b_sigmaStar_069) ) ))
(assert (= b_x_68 (and (= x_68 (str.++ x_57 literal_59) ) b_x_57 b_literal_59) ))
(assert (= b_x_69 (and (= x_69 (str.++ literal_61 x_65) ) b_literal_61 b_x_65) ))
(assert (= b_x_71 (and (= x_71 (str.++ x_62 literal_67) ) b_x_62 b_literal_67) ))
(assert (= b_x_72 (or (and (= x_72 x_68) b_x_68) (and (= x_72 sigmaStar_173) b_sigmaStar_173) ) ))
(assert (= b_x_75 (and (= x_75 (str.++ x_69 x_72) ) b_x_69 b_x_72) ))
(assert (= b_x_76 (or (and (= x_76 sigmaStar_675) b_sigmaStar_675) (and (= x_76 literal_74) b_literal_74) ) ))
(assert (= b_x_77 (and (= x_77 (str.++ x_71 literal_73) ) b_x_71 b_literal_73) ))
(assert (= b_x_78 (and (= x_78 (str.++ x_75 x_76) ) b_x_75 b_x_76) ))
(assert (= b_x_79 (and (= x_79 (str.++ x_78 x_77) ) b_x_78 b_x_77) ))
(assert (= b_x_81 (and (= x_81 (str.++ x_79 literal_80) ) b_x_79 b_literal_80) ))
(assert (= b_x_82 (and (= x_82 (str.++ sigmaStar_278 x_81) ) b_sigmaStar_278 b_x_81) ))
(assert (and (= sink x_82) (= sink atk_sink) b_x_82))
(assert (> 50 (+ (str.len sigmaStar_362) (str.len sink)) ) )
(check-sat)
